; benchmark generated from python API
(set-info :status unknown)
(declare-datatypes ((RealState 0)) (((RMk1 (rval1 Real)) (RMk2 (rval2 Real)))))
 (assert
 (forall ((|v17:0| Real) )(forall ((|v16:1| Real) )(forall ((|v15:2| Real) )(forall ((|v14:3| Real) )(forall ((|v13:4| Real) )(forall ((|v12:5| Real) )(exists ((|v11:6_st| RealState) (val!10308 Real) )(exists ((|v10:7_st| RealState) (val!10309 Real) )(exists ((|v9:8_st| RealState) (val!10310 Real) )(exists ((|v8:9_st| RealState) (val!10311 Real) )(exists ((|v7:10_st| RealState) (val!10312 Real) )(exists ((|v6:11_st| RealState) (val!10313 Real) )(forall ((|v5:12| Real) )(forall ((|v4:13| Real) )(forall ((|v3:14| Real) )(forall ((|v2:15| Real) )(forall ((|v1:16| Real) )(forall ((|v0:17| Real) )(let ((?x9179 (- 9.0)))
 (let ((?x1687 (- 5.0)))
 (let ((?x8763 (* ?x1687 |v14:3|)))
 (let ((?x5741 (* 15.0 |v12:5|)))
 (let ((?x4215 (* 3.0 |v13:4|)))
 (let ((?x439 (rval2 |v6:11_st|)))
 (let ((?x1576 (* 12.0 ?x439)))
 (let ((?x7148 (+ (+ (+ (* 11.0 ?x439) (* (- 13.0) |v4:13|)) (* (- 15.0) |v4:13|)) ?x1576)))
 (let ((?x3115 (* 17.0 |v15:2|)))
 (let ((?x4581 (* 7.0 ?x439)))
 (let ((?x7059 (+ (+ (+ (+ (* 14.0 |v5:12|) (* 8.0 |v3:14|)) (* 5.0 |v13:4|)) ?x4581) |v12:5|)))
 (let (($x6066 (and (<= (+ (+ ?x7059 |v14:3|) ?x3115) 17.0) (<= (+ (+ (+ ?x7148 ?x4215) ?x5741) ?x8763) ?x9179))))
 (let ((?x7122 (- 17.0)))
 (let ((?x6565 (* 5.0 |v2:15|)))
 (let ((?x7211 (* 5.0 |v3:14|)))
 (let ((?x9474 (* 2.0 |v17:0|)))
 (let ((?x3421 (+ (+ (+ (+ (* 11.0 |v0:17|) (* (- 11.0) |v16:1|)) (* ?x7122 |v1:16|)) ?x9474) (* ?x9179 (rval2 |v9:8_st|)))))
 (let ((?x3812 (- 15.0)))
 (let ((?x7586 (* ?x3812 |v4:13|)))
 (let ((?x7086 (* 9.0 |v0:17|)))
 (let ((?x991 (* 0.0 |v1:16|)))
 (let ((?x7545 (+ (+ (+ (* 16.0 |v13:4|) (* (- 1.0) |v12:5|)) (* 2.0 (rval2 |v9:8_st|))) ?x991)))
 (let (($x9401 (or (<= (+ (+ (+ ?x7545 (* (- 12.0) (rval2 |v10:7_st|))) ?x7086) ?x7586) 17.0) (<= (+ (+ ?x3421 ?x7211) ?x6565) ?x7122))))
 (let ((?x9566 (- 10.0)))
 (let ((?x461 (* ?x9566 ?x439)))
 (let ((?x8946 (* 6.0 |v3:14|)))
 (let ((?x5711 (* 16.0 ?x439)))
 (let ((?x5679 (rval2 |v9:8_st|)))
 (let ((?x2893 (* 9.0 ?x5679)))
 (let ((?x4854 (+ (+ (+ (+ (* (- 3.0) (rval2 |v8:9_st|)) (* ?x1687 |v15:2|)) ?x2893) ?x5711) ?x8946)))
 (let (($x3678 (and (<= (+ (+ ?x4854 ?x461) (* (- 6.0) |v12:5|)) ?x1687) (and $x9401 $x6066))))
 (let ((?x3312 (- 13.0)))
 (let ((?x3237 (- 14.0)))
 (let ((?x32 (* ?x3237 |v16:1|)))
 (let ((?x3127 (* 14.0 |v15:2|)))
 (let ((?x1242 (* 12.0 |v15:2|)))
 (let ((?x4127 (* 11.0 |v12:5|)))
 (let ((?x6190 (* 0.0 |v17:0|)))
 (let ((?x2555 (+ (+ (+ (* (- 16.0) (rval2 |v8:9_st|)) (* (- 1.0) |v16:1|)) ?x6190) ?x4127)))
 (let ((?x1033 (* 20.0 |v17:0|)))
 (let ((?x3014 (* 12.0 ?x5679)))
 (let ((?x7452 (+ (+ (+ (+ (+ (* ?x3312 ?x5679) |v15:2|) (* 20.0 |v4:13|)) ?x5679) ?x3014) (* 0.0 |v16:1|))))
 (let ((?x2854 (* 20.0 |v14:3|)))
 (let ((?x3452 (* 13.0 |v1:16|)))
 (let ((?x4838 (+ (+ (+ (* (- 6.0) |v13:4|) (* (- 12.0) |v17:0|)) (* 6.0 |v12:5|)) ?x2893)))
 (let (($x6262 (or (<= (+ (+ (+ ?x4838 (* (- 3.0) |v12:5|)) ?x3452) ?x2854) 9.0) (<= (+ ?x7452 ?x1033) 15.0))))
 (let ((?x3775 (- 16.0)))
 (let ((?x3445 (* ?x3775 |v5:12|)))
 (let ((?x929 (* ?x3237 ?x439)))
 (let ((?x2701 (rval2 |v7:10_st|)))
 (let ((?x7926 (* ?x3775 ?x2701)))
 (let ((?x9370 (+ (+ (+ (* ?x3775 |v4:13|) (* ?x3312 |v4:13|)) (* (- 20.0) |v1:16|)) (* (- 3.0) |v5:12|))))
 (let ((?x7468 (- 11.0)))
 (let ((?x286 (- 19.0)))
 (let ((?x3585 (* ?x286 |v17:0|)))
 (let ((?x6228 (+ (+ (+ (* 16.0 (rval2 |v11:6_st|)) (* 20.0 |v16:1|)) (* (- 1.0) ?x5679)) (* 6.0 |v14:3|))))
 (let (($x6831 (<= (+ (+ (+ ?x6228 (* (- 6.0) (rval2 |v11:6_st|))) (* ?x3775 ?x439)) ?x3585) ?x7468)))
 (let (($x3954 (and (or (or $x6831 (<= (+ (+ (+ ?x9370 ?x7926) ?x929) ?x3445) ?x9179)) $x6262) (<= (+ (+ (+ ?x2555 ?x1242) ?x3127) ?x32) ?x3312))))
 (let ((?x4856 (rval2 |v11:6_st|)))
 (let ((?x3541 (* ?x3237 ?x4856)))
 (let ((?x5006 (* 18.0 ?x2701)))
 (let ((?x5543 (* 15.0 ?x439)))
 (let ((?x3845 (* ?x7468 |v16:1|)))
 (let ((?x5270 (+ (+ (+ (* 8.0 |v17:0|) (* 19.0 (rval2 |v10:7_st|))) (* (- 1.0) ?x5679)) ?x3845)))
 (let ((?x9440 (* ?x7122 |v4:13|)))
 (let ((?x4592 (- 4.0)))
 (let ((?x3401 (* ?x4592 |v16:1|)))
 (let ((?x9351 (+ (+ (+ (* (- 8.0) |v1:16|) (* 19.0 (rval2 |v10:7_st|))) (* 0.0 ?x2701)) (* (- 2.0) |v13:4|))))
 (let ((?x7610 (* 12.0 |v1:16|)))
 (let ((?x3669 (rval2 |v10:7_st|)))
 (let ((?x3830 (* 16.0 ?x3669)))
 (let ((?x4466 (* ?x7122 |v12:5|)))
 (let ((?x3221 (+ (+ (+ (* (- 2.0) |v17:0|) (* 6.0 |v5:12|)) (* 3.0 |v12:5|)) (* (- 18.0) |v14:3|))))
 (let (($x4003 (or (<= (+ (+ (+ ?x3221 ?x4466) ?x3830) ?x7610) 2.0) (<= (+ (+ (+ ?x9351 ?x9440) ?x3401) ?x9440) 0.0))))
 (let ((?x3862 (* ?x1687 |v4:13|)))
 (let ((?x5850 (* 18.0 |v14:3|)))
 (let ((?x3357 (* ?x7468 |v4:13|)))
 (let ((?x2896 (+ (+ (+ (* (- 12.0) |v16:1|) (* ?x3812 ?x5679)) (* 5.0 (rval2 |v8:9_st|))) ?x3357)))
 (let ((?x4745 (* ?x1687 ?x2701)))
 (let ((?x931 (* ?x7468 ?x2701)))
 (let ((?x4910 (* 0.0 |v5:12|)))
 (let ((?x7784 (+ (+ (+ (+ (* ?x4592 |v4:13|) (* (- 1.0) |v0:17|)) (* ?x7122 |v0:17|)) ?x4910) (* 2.0 |v5:12|))))
 (let (($x5276 (or (<= (+ (+ ?x7784 ?x931) ?x4745) ?x9566) (<= (+ (+ (+ ?x2896 ?x5850) ?x3862) ?x3014) 12.0))))
 (let ((?x6161 (* 13.0 |v2:15|)))
 (let ((?x3286 (* ?x7122 |v2:15|)))
 (let ((?x5913 (* 16.0 |v4:13|)))
 (let ((?x3022 (+ (+ (+ (* 9.0 |v14:3|) (* 8.0 |v14:3|)) (* (- 20.0) |v12:5|)) ?x3127)))
 (let ((?x5223 (* 9.0 ?x4856)))
 (let ((?x5114 (+ (+ (+ (* (- 6.0) |v14:3|) (* ?x3775 (rval2 |v8:9_st|))) (* 3.0 ?x439)) ?x5223)))
 (let (($x5831 (<= (+ (+ (+ ?x5114 (* ?x9566 |v12:5|)) (* (- 1.0) (rval2 |v8:9_st|))) ?x5543) ?x7122)))
 (let ((?x8355 (- 12.0)))
 (let ((?x3675 (* ?x8355 |v2:15|)))
 (let ((?x9214 (rval2 |v8:9_st|)))
 (let ((?x4537 (* 13.0 ?x9214)))
 (let ((?x9308 (- 7.0)))
 (let ((?x6173 (* ?x9308 |v16:1|)))
 (let ((?x9466 (+ (+ (+ (+ (* ?x3237 |v13:4|) (* 0.0 |v12:5|)) (* (- 1.0) |v14:3|)) ?x6173) ?x3830)))
 (let ((?x7025 (* 17.0 ?x3669)))
 (let ((?x9230 (* ?x9179 |v0:17|)))
 (let ((?x6156 (- 18.0)))
 (let ((?x6394 (* ?x6156 |v2:15|)))
 (let ((?x7294 (+ (+ (+ (* 3.0 ?x2701) (* 2.0 ?x5679)) (* 12.0 |v13:4|)) (* 0.0 |v13:4|))))
 (let (($x2737 (and (<= (+ (+ (+ ?x7294 ?x6394) ?x9230) ?x7025) 10.0) (<= (+ (+ ?x9466 ?x4537) ?x3675) 18.0))))
 (let (($x3632 (and (and $x2737 (or $x5831 (<= (+ (+ (+ ?x3022 ?x5913) ?x3286) ?x6161) 11.0))) (and $x5276 $x4003))))
 (let (($x1041 (and (and $x3632 (<= (+ (+ (+ ?x5270 ?x5543) ?x5006) ?x3541) 7.0)) (and $x3954 $x3678))))
 (let ((?x6211 (* ?x286 |v15:2|)))
 (let ((?x7410 (- 8.0)))
 (let ((?x2884 (* ?x7410 ?x4856)))
 (let ((?x5537 (- 1.0)))
 (let ((?x8937 (* ?x5537 |v1:16|)))
 (let ((?x3447 (+ (+ (+ (+ (* ?x9566 |v1:16|) (* (- 20.0) |v14:3|)) |v1:16|) (* ?x6156 |v3:14|)) ?x8937)))
 (let ((?x609 (* 2.0 |v14:3|)))
 (let ((?x2278 (* ?x7122 ?x2701)))
 (let ((?x2026 (* ?x286 |v2:15|)))
 (let ((?x8481 (* 11.0 |v3:14|)))
 (let ((?x1000 (+ (+ (+ (* 9.0 |v13:4|) (* (- 6.0) |v14:3|)) (* 12.0 |v16:1|)) ?x8481)))
 (let (($x1433 (or (<= (+ (+ (+ ?x1000 ?x2026) ?x2278) ?x609) 20.0) (<= (+ (+ ?x3447 ?x2884) ?x6211) 5.0))))
 (let ((?x5187 (- 6.0)))
 (let ((?x112 (* 5.0 |v5:12|)))
 (let ((?x6059 (- 2.0)))
 (let ((?x8758 (* ?x6059 ?x2701)))
 (let ((?x640 (* 3.0 ?x9214)))
 (let ((?x1168 (+ (+ (+ (* ?x3775 |v3:14|) (* 16.0 |v0:17|)) (* (- 20.0) |v3:14|)) (* 9.0 |v5:12|))))
 (let ((?x9310 (* 13.0 |v17:0|)))
 (let ((?x8571 (* 13.0 ?x439)))
 (let ((?x9149 (* 2.0 ?x2701)))
 (let ((?x6416 (+ (+ (+ (+ (* 13.0 ?x2701) (* 17.0 |v12:5|)) (* 9.0 ?x439)) ?x9149) (* 0.0 ?x5679))))
 (let (($x3087 (or (<= (+ (+ ?x6416 ?x8571) ?x9310) ?x5187) (<= (+ (+ (+ ?x1168 ?x640) ?x8758) ?x112) ?x5187))))
 (let ((?x5845 (* 8.0 |v5:12|)))
 (let ((?x4750 (* ?x3237 |v3:14|)))
 (let ((?x9518 (+ (+ (+ (+ (* ?x6059 |v12:5|) (* 2.0 ?x5679)) (* ?x3312 |v13:4|)) ?x4750) ?x5845)))
 (let ((?x2209 (* 20.0 ?x2701)))
 (let ((?x6807 (* 18.0 |v1:16|)))
 (let ((?x8977 (* 16.0 |v17:0|)))
 (let ((?x8157 (+ (+ (+ (+ (* ?x6059 |v15:2|) (* 6.0 ?x9214)) (* ?x7410 |v14:3|)) ?x8977) ?x6807)))
 (let (($x6792 (and (<= (+ (+ ?x8157 ?x2209) (* ?x5537 ?x4856)) 12.0) (<= (+ (+ ?x9518 (* ?x7122 |v14:3|)) ?x6211) ?x3775))))
 (let ((?x4950 (* 0.0 |v2:15|)))
 (let ((?x6840 (* ?x6059 |v17:0|)))
 (let ((?x4915 (* 5.0 |v12:5|)))
 (let ((?x6529 (+ (+ (+ (+ (* ?x5187 |v14:3|) (* 4.0 |v12:5|)) ?x1576) (* ?x7122 |v13:4|)) ?x4915)))
 (let ((?x6427 (* 19.0 |v12:5|)))
 (let ((?x7020 (* 18.0 |v15:2|)))
 (let ((?x2033 (* 3.0 |v15:2|)))
 (let ((?x3579 (* 4.0 |v4:13|)))
 (let ((?x5781 (+ (+ (+ (+ (* ?x5187 |v0:17|) (* ?x9179 |v13:4|)) (* 14.0 ?x439)) ?x3579) ?x2033)))
 (let (($x7949 (or (<= (+ (+ ?x5781 ?x7020) ?x6427) 13.0) (<= (+ (+ ?x6529 ?x6840) ?x4950) ?x9308))))
 (let ((?x5561 (* ?x6156 ?x9214)))
 (let ((?x6138 (* ?x3812 |v15:2|)))
 (let ((?x9257 (+ (+ (+ (+ (+ ?x5913 ?x929) (* 12.0 |v17:0|)) (* ?x4592 |v2:15|)) ?x6565) ?x6138)))
 (let ((?x3386 (* 6.0 |v17:0|)))
 (let ((?x9016 (* ?x9179 ?x4856)))
 (let ((?x4897 (* 0.0 ?x9214)))
 (let ((?x3040 (+ (+ (+ (+ (* 2.0 ?x439) (* ?x3237 ?x5679)) ?x4215) (* 10.0 |v16:1|)) ?x4897)))
 (let ((?x7576 (* 11.0 ?x5679)))
 (let ((?x7696 (* ?x8355 ?x2701)))
 (let ((?x1753 (* 8.0 ?x4856)))
 (let ((?x2746 (+ (+ (+ (+ (* 2.0 ?x3669) (* 8.0 |v14:3|)) (* 20.0 ?x9214)) ?x1753) (* ?x6059 ?x439))))
 (let ((?x7927 (* 5.0 ?x3669)))
 (let ((?x8034 (* 17.0 |v12:5|)))
 (let ((?x902 (* 11.0 |v14:3|)))
 (let ((?x1185 (+ (+ (+ (+ (+ (* ?x9308 ?x5679) (* 8.0 ?x2701)) ?x9016) ?x1753) ?x902) ?x8034)))
 (let (($x5785 (and (and (<= (+ ?x1185 ?x7927) 0.0) (<= (+ (+ ?x2746 ?x7696) ?x7576) ?x4592)) (and (<= (+ (+ ?x3040 ?x9016) ?x3386) 6.0) (<= (+ ?x9257 ?x5561) 17.0)))))
 (let ((?x9624 (* ?x7122 ?x9214)))
 (let ((?x4867 (+ (+ (* ?x7410 |v2:15|) (* ?x5537 |v0:17|)) (* 11.0 |v1:16|))))
 (let (($x6654 (<= (+ (+ (+ (+ ?x4867 ?x9624) (* ?x3775 |v17:0|)) ?x1242) (* ?x7122 ?x439)) 6.0)))
 (let ((?x6390 (* ?x1687 |v0:17|)))
 (let ((?x5630 (* ?x3775 |v4:13|)))
 (let ((?x8025 (+ (+ (+ (+ (* 15.0 |v2:15|) ?x461) (* ?x9308 |v15:2|)) (* ?x7468 |v0:17|)) ?x5630)))
 (let ((?x7925 (- 3.0)))
 (let ((?x7744 (* ?x3312 |v3:14|)))
 (let ((?x5425 (* ?x7122 |v1:16|)))
 (let ((?x2431 (* ?x9179 ?x3669)))
 (let ((?x7099 (+ (+ (+ (+ (* 3.0 ?x439) (* 14.0 |v13:4|)) (* 5.0 |v13:4|)) ?x2431) ?x5425)))
 (let ((?x9659 (* 9.0 ?x439)))
 (let ((?x8620 (* 13.0 |v3:14|)))
 (let ((?x8762 (+ (+ (+ (+ (+ ?x4537 (* ?x9308 |v15:2|)) (* ?x3312 |v5:12|)) ?x8571) ?x8620) (* ?x286 ?x3669))))
 (let (($x1837 (or (and (<= (+ ?x8762 ?x9659) ?x8355) (<= (+ (+ ?x7099 ?x7744) ?x6565) ?x7925)) (and (<= (+ (+ ?x8025 (* 0.0 ?x3669)) ?x6390) 0.0) $x6654))))
 (let ((?x50 (* 20.0 |v2:15|)))
 (let ((?x6132 (* 17.0 |v2:15|)))
 (let ((?x2540 (- 20.0)))
 (let ((?x3448 (* ?x2540 |v1:16|)))
 (let ((?x5678 (+ (+ (+ (* ?x5537 |v13:4|) (* ?x7410 |v5:12|)) (* 13.0 |v13:4|)) (* 6.0 |v15:2|))))
 (let ((?x4927 (* 16.0 ?x5679)))
 (let ((?x8136 (* ?x2540 |v12:5|)))
 (let ((?x1846 (+ (+ (+ (+ (* ?x4592 |v3:14|) (* 2.0 ?x9214)) ?x32) (* 8.0 |v16:1|)) ?x8136)))
 (let (($x8730 (or (<= (+ (+ ?x1846 |v17:0|) ?x4927) ?x9179) (<= (+ (+ (+ ?x5678 ?x3448) ?x6132) ?x50) 2.0))))
 (let ((?x4379 (* 3.0 ?x3669)))
 (let ((?x4595 (* 8.0 ?x3669)))
 (let ((?x3009 (* ?x9179 |v2:15|)))
 (let ((?x5456 (+ (+ (+ (+ (* 10.0 |v13:4|) (* 7.0 |v13:4|)) (* ?x9179 |v13:4|)) ?x3009) ?x4595)))
 (let ((?x4593 (* ?x286 ?x5679)))
 (let ((?x4763 (* 16.0 ?x2701)))
 (let ((?x5017 (* 4.0 ?x5679)))
 (let ((?x262 (+ (+ (+ (+ (* 6.0 ?x9214) (* 2.0 |v13:4|)) (* 6.0 ?x5679)) ?x3014) ?x5017)))
 (let (($x2564 (or (<= (+ (+ ?x262 ?x4763) ?x4593) ?x2540) (<= (+ (+ ?x5456 (* ?x3237 ?x3669)) ?x4379) 11.0))))
 (let ((?x7972 (* 9.0 |v16:1|)))
 (let ((?x593 (* 5.0 |v14:3|)))
 (let ((?x95 (+ (+ (+ (+ ?x7972 (* ?x7410 |v0:17|)) (* 3.0 ?x2701)) (* ?x3312 ?x3669)) ?x1576)))
 (let ((?x7510 (* 16.0 |v1:16|)))
 (let ((?x6874 (* 4.0 |v1:16|)))
 (let ((?x8560 (+ (+ (+ (+ (+ ?x7576 (* 8.0 |v17:0|)) ?x5850) (* ?x7468 |v17:0|)) ?x6874) (* ?x9566 |v16:1|))))
 (let ((?x4119 (* ?x7122 ?x4856)))
 (let ((?x6002 (* ?x8355 |v16:1|)))
 (let ((?x1177 (+ (+ (+ (+ (+ (* ?x5537 |v12:5|) (* 19.0 |v4:13|)) |v14:3|) ?x6138) ?x6002) ?x3401)))
 (let ((?x5714 (+ (+ (+ (+ ?x1242 (* 3.0 |v4:13|)) (* 15.0 |v3:14|)) (* 13.0 |v12:5|)) (* ?x7410 |v16:1|))))
 (let (($x7378 (or (or (<= (+ (+ ?x5714 ?x640) ?x4215) 12.0) (<= (+ ?x1177 ?x4119) ?x2540)) (and (<= (+ ?x8560 ?x7510) ?x9308) (<= (+ (+ ?x95 ?x593) ?x7972) ?x9308)))))
 (let ((?x4984 (* 4.0 |v16:1|)))
 (let ((?x9192 (* ?x9566 |v2:15|)))
 (let ((?x403 (+ (+ (+ (+ ?x6002 (* ?x3812 ?x3669)) (* ?x1687 |v12:5|)) (* ?x5187 |v17:0|)) ?x9192)))
 (let ((?x447 (* 18.0 ?x4856)))
 (let ((?x7004 (* 18.0 ?x9214)))
 (let ((?x5868 (+ (+ (+ (+ (+ ?x4745 (* ?x6156 |v3:14|)) (* 13.0 |v13:4|)) ?x7086) ?x7004) ?x447)))
 (let (($x7740 (and (<= (+ ?x5868 (* ?x9566 ?x4856)) ?x7122) (<= (+ (+ ?x403 ?x2893) ?x4984) 12.0))))
 (let ((?x7514 (* ?x286 |v1:16|)))
 (let ((?x1220 (* ?x9308 |v14:3|)))
 (let ((?x4311 (* ?x7468 |v17:0|)))
 (let ((?x7564 (+ (+ (+ (+ (+ (* ?x4592 |v15:2|) ?x8758) ?x9016) (* 18.0 ?x5679)) ?x4311) ?x1220)))
 (let ((?x7380 (* 17.0 ?x439)))
 (let ((?x2886 (* 4.0 |v3:14|)))
 (let ((?x7001 (* 19.0 |v13:4|)))
 (let ((?x3698 (+ (+ (+ (+ (* ?x1687 |v13:4|) (* 0.0 |v0:17|)) (* 10.0 |v2:15|)) ?x7001) ?x2278)))
 (let (($x6337 (and (or (<= (+ (+ ?x3698 ?x2886) ?x7380) ?x3812) (<= (+ ?x7564 ?x7514) 11.0)) $x7740)))
 (let ((?x1302 (* 14.0 |v16:1|)))
 (let ((?x6356 (* 19.0 ?x2701)))
 (let ((?x5892 (+ (+ (+ (+ (* ?x3775 |v1:16|) (* 19.0 ?x3669)) ?x1033) (* 19.0 |v4:13|)) ?x5223)))
 (let ((?x9430 (* ?x7925 ?x9214)))
 (let ((?x8134 (* 9.0 |v15:2|)))
 (let ((?x6095 (+ (+ (+ (+ ?x6390 (* ?x2540 |v17:0|)) (* 3.0 ?x4856)) (* ?x6156 ?x439)) (* ?x4592 |v14:3|))))
 (let ((?x8994 (* ?x3812 |v3:14|)))
 (let ((?x7647 (* ?x3775 |v14:3|)))
 (let ((?x2165 (* ?x7468 |v5:12|)))
 (let ((?x2882 (+ (+ (+ (+ (* 4.0 ?x9214) (* 3.0 ?x439)) (* 3.0 ?x439)) ?x5679) ?x2165)))
 (let (($x628 (and (<= (+ (+ ?x2882 ?x7647) ?x8994) 13.0) (<= (+ (+ ?x6095 ?x8134) ?x9430) ?x2540))))
 (let (($x4894 (or (and (and $x628 (<= (+ (+ ?x5892 ?x6356) ?x1302) 0.0)) $x6337) (or $x7378 (and $x2564 $x8730)))))
 (let (($x4810 (or (or $x4894 (and (and $x1837 $x5785) (or (or $x7949 $x6792) (or $x3087 $x1433)))) $x1041)))
 (let ((?x9318 (* ?x1687 |v15:2|)))
 (let ((?x1900 (* 19.0 |v15:2|)))
 (let ((?x6455 (+ (+ (+ (+ ?x9310 (* ?x286 |v16:1|)) (* 19.0 |v1:16|)) (* 9.0 |v1:16|)) ?x1900)))
 (let ((?x5865 (* ?x3775 |v0:17|)))
 (let ((?x8108 (* ?x4592 |v4:13|)))
 (let ((?x3902 (+ (+ (+ (* ?x8355 |v14:3|) (* 15.0 |v14:3|)) (* ?x9308 ?x4856)) (* ?x5537 ?x439))))
 (let (($x9240 (and (<= (+ (+ (+ ?x3902 ?x8108) ?x5865) (* ?x286 ?x2701)) 18.0) (<= (+ (+ ?x6455 ?x9318) (* ?x8355 ?x4856)) 13.0))))
 (let ((?x5026 (* 2.0 ?x3669)))
 (let ((?x4741 (* 11.0 |v2:15|)))
 (let ((?x1082 (* 12.0 |v16:1|)))
 (let ((?x3313 (+ (+ (+ (+ |v0:17| (* ?x9179 |v14:3|)) (* ?x3237 |v12:5|)) (* ?x5537 |v4:13|)) ?x1082)))
 (let ((?x1106 (* ?x3775 ?x4856)))
 (let ((?x8997 (* 13.0 |v14:3|)))
 (let ((?x7066 (+ (+ (+ (+ (+ (* ?x3775 ?x9214) ?x1220) ?x3127) (* ?x3812 ?x439)) ?x8997) ?x1106)))
 (let (($x7845 (and (and (<= (+ ?x7066 ?x6874) ?x286) (<= (+ (+ ?x3313 ?x4741) ?x5026) 3.0)) $x9240)))
 (let ((?x8817 (* 15.0 |v17:0|)))
 (let ((?x2455 (* 13.0 |v12:5|)))
 (let ((?x2935 (* ?x5187 ?x3669)))
 (let ((?x8770 (+ (+ (+ (+ (+ ?x4466 (* ?x7410 |v15:2|)) (* ?x5537 |v5:12|)) ?x8763) ?x2935) ?x2455)))
 (let ((?x3841 (* 15.0 |v16:1|)))
 (let ((?x9458 (+ (+ (+ (+ (* 0.0 |v15:2|) (* 19.0 ?x439)) ?x5865) (* 8.0 |v1:16|)) ?x3841)))
 (let (($x6730 (or (<= (+ (+ ?x9458 ?x4750) (* 20.0 ?x439)) 8.0) (<= (+ ?x8770 ?x8817) 0.0))))
 (let ((?x4450 (* ?x5187 |v14:3|)))
 (let ((?x3774 (+ (+ (+ (+ (+ ?x9214 ?x1242) (* 16.0 |v0:17|)) (* 3.0 |v3:14|)) ?x4379) ?x4450)))
 (let ((?x9464 (* 3.0 |v1:16|)))
 (let ((?x4649 (* 14.0 ?x9214)))
 (let ((?x8702 (+ (+ (+ (+ (+ ?x5425 (* 15.0 |v4:13|)) (* ?x4592 |v13:4|)) ?x3541) ?x4649) ?x4741)))
 (let ((?x6994 (* ?x7122 |v16:1|)))
 (let ((?x3329 (+ (+ (+ (+ (* 5.0 ?x4856) (* ?x5537 |v15:2|)) (* 5.0 ?x4856)) ?x9430) ?x6994)))
 (let (($x8677 (and (<= (+ (+ ?x3329 ?x439) (* ?x3312 |v14:3|)) 3.0) (<= (+ ?x8702 ?x9464) ?x5187))))
 (let ((?x6988 (* ?x3312 ?x5679)))
 (let ((?x2986 (+ (+ (+ (+ (* 11.0 ?x439) ?x6394) (* ?x5187 |v1:16|)) (* 13.0 |v5:12|)) ?x4581)))
 (let ((?x7659 (+ (+ (+ (+ (* ?x5537 |v3:14|) (* 8.0 |v3:14|)) (* ?x7410 |v4:13|)) ?x4119) ?x8758)))
 (let (($x3343 (or (<= (+ (+ ?x7659 ?x3401) ?x4984) ?x2540) (<= (+ (+ ?x2986 ?x6988) ?x50) ?x9179))))
 (let ((?x6278 (* 17.0 |v0:17|)))
 (let ((?x6797 (* 18.0 |v16:1|)))
 (let ((?x639 (+ (+ (+ (+ (* 11.0 ?x4856) ?x3585) (* ?x7122 |v3:14|)) (* 5.0 |v0:17|)) ?x447)))
 (let ((?x508 (* ?x5187 |v3:14|)))
 (let ((?x3146 (+ (+ (+ (+ (+ (+ (* 8.0 ?x2701) ?x6132) ?x5741) ?x3585) ?x902) ?x8134) ?x508)))
 (let ((?x8710 (* ?x7410 |v2:15|)))
 (let ((?x68 (* 7.0 ?x9214)))
 (let ((?x2208 (+ (+ (+ (+ (* ?x286 |v16:1|) (* ?x3237 ?x5679)) (* 12.0 |v17:0|)) ?x5865) ?x68)))
 (let (($x909 (or (<= (+ (+ ?x2208 ?x8710) ?x8034) ?x7410) (and (<= ?x3146 7.0) (<= (+ (+ ?x639 ?x6797) ?x6278) ?x1687)))))
 (let (($x3839 (and (or $x909 (or $x3343 $x8677)) (and (or (<= (+ ?x3774 (* 19.0 |v14:3|)) 5.0) $x6730) $x7845))))
 (let ((?x4339 (* 7.0 ?x3669)))
 (let ((?x6512 (* ?x5537 |v15:2|)))
 (let ((?x4789 (+ (+ (+ (+ (* ?x6059 ?x9214) (* ?x3812 |v2:15|)) (* ?x5537 ?x5679)) ?x6512) ?x4339)))
 (let ((?x8864 (* ?x7925 ?x4856)))
 (let ((?x3752 (* ?x3812 |v5:12|)))
 (let ((?x5443 (+ (+ (+ (+ (+ ?x2701 ?x7696) (* ?x9308 ?x3669)) (* ?x9179 |v16:1|)) ?x3752) ?x8864)))
 (let ((?x9390 (+ (+ (+ (+ (* ?x2540 |v3:14|) ?x4311) (* ?x3312 ?x439)) (* ?x6156 ?x3669)) |v13:4|)))
 (let (($x7204 (or (<= (+ (+ ?x9390 ?x3452) (* ?x2540 |v15:2|)) ?x3812) (<= (+ ?x5443 ?x1302) 3.0))))
 (let ((?x9079 (* ?x2540 |v14:3|)))
 (let ((?x2183 (* 15.0 |v0:17|)))
 (let ((?x519 (+ (+ (+ (+ (* ?x6059 |v14:3|) (* 0.0 |v14:3|)) (* 17.0 ?x9214)) ?x2183) ?x3841)))
 (let ((?x5963 (+ (+ (+ (+ (+ (* ?x5537 ?x5679) (* 3.0 |v12:5|)) ?x4897) ?x929) ?x7211) ?x4339)))
 (let (($x7518 (and (<= (+ ?x5963 ?x3541) 19.0) (<= (+ (+ ?x519 (* ?x7925 ?x3669)) ?x9079) ?x9179))))
 (let ((?x679 (* 8.0 ?x9214)))
 (let ((?x13 (+ (+ (+ (+ (* ?x9308 ?x3669) (* 20.0 |v15:2|)) (* 11.0 ?x3669)) ?x2893) ?x3357)))
 (let ((?x1947 (* ?x5187 |v16:1|)))
 (let ((?x7271 (* ?x3775 ?x9214)))
 (let ((?x697 (+ (+ (+ (+ (* ?x7410 |v14:3|) (* 7.0 ?x2701)) (* ?x8355 |v5:12|)) ?x7271) ?x2935)))
 (let (($x7321 (or (<= (+ (+ ?x697 ?x1947) ?x4910) 3.0) (<= (+ (+ ?x13 ?x6190) ?x679) 2.0))))
 (let (($x7046 (and (and $x7321 $x7518) (and $x7204 (<= (+ (+ ?x4789 (* ?x8355 ?x9214)) (* ?x286 |v14:3|)) 1.0)))))
 (let ((?x1283 (* ?x3812 ?x9214)))
 (let ((?x869 (* 13.0 ?x2701)))
 (let ((?x2154 (+ (+ (+ (+ (* ?x286 ?x439) ?x869) (* ?x3812 ?x439)) ?x869) (* ?x7122 |v17:0|))))
 (let ((?x7534 (* ?x7122 |v15:2|)))
 (let ((?x4107 (* ?x3812 |v13:4|)))
 (let ((?x4832 (+ (+ (+ (+ (* 7.0 ?x5679) ?x7020) (* ?x7468 ?x439)) (* ?x9566 |v14:3|)) ?x4107)))
 (let (($x6449 (and (<= (+ (+ ?x4832 ?x7534) (* ?x9179 ?x2701)) ?x6156) (<= (+ (+ ?x2154 ?x5561) ?x1283) ?x9179))))
 (let ((?x6273 (* 17.0 |v1:16|)))
 (let ((?x9347 (+ (+ (+ (+ (* ?x7468 ?x3669) (* ?x9566 |v0:17|)) (* ?x3812 |v2:15|)) |v2:15|) ?x2884)))
 (let ((?x3740 (* 3.0 |v12:5|)))
 (let ((?x6346 (+ (+ (+ (+ (+ ?x3357 (* 5.0 ?x2701)) ?x2893) ?x931) (* 15.0 ?x3669)) |v2:15|)))
 (let (($x7754 (and (or (<= (+ ?x6346 ?x3740) 13.0) (<= (+ (+ ?x9347 ?x4593) ?x6273) 10.0)) $x6449)))
 (let ((?x9078 (+ (+ (+ (+ (+ ?x3675 (* ?x3312 ?x4856)) ?x5679) ?x5561) (* ?x5187 ?x9214)) ?x4215)))
 (let ((?x687 (* ?x1687 |v3:14|)))
 (let ((?x3035 (* ?x7468 |v13:4|)))
 (let ((?x9702 (+ (+ (+ (+ (* ?x5537 ?x5679) (* ?x2540 ?x3669)) (* 5.0 ?x439)) ?x2183) ?x3035)))
 (let (($x9055 (or (<= (+ (+ ?x9702 ?x687) ?x7534) 9.0) (<= (+ ?x9078 (* 11.0 |v15:2|)) ?x8355))))
 (let ((?x4261 (* 9.0 |v3:14|)))
 (let ((?x2233 (* 4.0 |v0:17|)))
 (let ((?x5484 (* 3.0 |v2:15|)))
 (let ((?x3294 (+ (+ (+ (+ (* 19.0 |v16:1|) (* 18.0 ?x439)) (* ?x5537 |v14:3|)) ?x5484) ?x2233)))
 (let ((?x4307 (* 8.0 |v16:1|)))
 (let ((?x1944 (* 5.0 ?x9214)))
 (let ((?x6773 (* ?x2540 |v0:17|)))
 (let ((?x5967 (+ (+ (+ (+ (+ (* 19.0 |v5:12|) ?x687) ?x9624) (* ?x8355 |v3:14|)) ?x6773) ?x1944)))
 (let (($x4848 (and (<= (+ ?x5967 ?x4307) 7.0) (<= (+ (+ ?x3294 ?x4261) (* ?x9179 |v12:5|)) 7.0))))
 (let ((?x5839 (* ?x6059 |v3:14|)))
 (let ((?x1526 (* 15.0 |v5:12|)))
 (let ((?x3621 (+ (+ (+ (+ (* ?x3812 |v16:1|) (* ?x286 |v3:14|)) (* ?x9308 ?x9214)) ?x6773) ?x1526)))
 (let ((?x3967 (* ?x2540 |v3:14|)))
 (let ((?x7511 (* 16.0 |v12:5|)))
 (let ((?x1339 (* ?x3237 |v15:2|)))
 (let ((?x8249 (+ (+ (+ (+ ?x3014 (* ?x2540 ?x9214)) (* ?x5187 ?x439)) (* 19.0 ?x5679)) ?x1339)))
 (let (($x8391 (and (<= (+ (+ ?x8249 ?x7511) ?x3967) 19.0) (<= (+ (+ ?x3621 ?x3675) ?x5839) ?x3775))))
 (let ((?x3332 (+ (+ (+ (+ (* ?x5187 ?x9214) ?x3357) (* ?x9308 ?x4856)) (* 9.0 ?x9214)) ?x8034)))
 (let ((?x111 (+ (+ (+ (+ ?x1339 (* 13.0 |v16:1|)) (* 18.0 |v12:5|)) (* ?x8355 ?x439)) (* ?x7122 ?x3669))))
 (let (($x1024 (or (<= (+ (+ ?x111 ?x68) (* ?x3775 ?x5679)) ?x6156) (<= (+ (+ ?x3332 (* ?x2540 |v16:1|)) ?x6797) 4.0))))
 (let ((?x5310 (* 15.0 |v1:16|)))
 (let ((?x5772 (+ (+ (+ (+ (+ ?x9430 (* ?x5537 ?x2701)) ?x7926) (* ?x7925 |v0:17|)) ?x6273) (* ?x5187 ?x5679))))
 (let ((?x8625 (* ?x8355 |v5:12|)))
 (let ((?x4493 (+ (+ (+ (+ (+ ?x679 (* 19.0 ?x9214)) ?x2431) (* 7.0 |v0:17|)) ?x8817) ?x991)))
 (let ((?x1927 (* ?x7925 |v1:16|)))
 (let ((?x3484 (* 4.0 |v14:3|)))
 (let ((?x558 (+ (+ (+ (+ (+ ?x7586 (* ?x6059 |v12:5|)) (* 3.0 |v3:14|)) ?x1947) ?x3484) ?x1927)))
 (let ((?x6054 (* 9.0 |v4:13|)))
 (let ((?x8058 (+ (+ (+ (+ (* 8.0 ?x2701) ?x7647) (* 7.0 ?x2701)) (* 12.0 |v17:0|)) ?x6054)))
 (let (($x3800 (or (or (<= (+ (+ ?x8058 ?x3752) ?x6278) ?x3775) (<= (+ ?x558 ?x7511) ?x9566)) (and (<= (+ ?x4493 ?x8625) ?x9179) (<= (+ ?x5772 ?x5310) ?x4592)))))
 (let ((?x4229 (* ?x5187 |v1:16|)))
 (let ((?x2515 (+ (+ (+ (* 8.0 |v0:17|) (* ?x7410 |v5:12|)) (* ?x5537 |v2:15|)) ?x8620)))
 (let ((?x4946 (* 0.0 |v0:17|)))
 (let ((?x6531 (* 13.0 |v5:12|)))
 (let ((?x8857 (+ (+ (+ (+ (* ?x2540 |v13:4|) (* ?x7122 |v0:17|)) (* ?x7410 ?x5679)) ?x5425) ?x6531)))
 (let (($x1872 (or (<= (+ (+ ?x8857 ?x4946) ?x9214) 12.0) (<= (+ (+ (+ ?x2515 (* 16.0 |v16:1|)) (* ?x1687 ?x439)) ?x4229) ?x3312))))
 (let ((?x4512 (* ?x2540 ?x9214)))
 (let ((?x8480 (+ (+ (+ (+ (* ?x1687 |v17:0|) ?x1339) (* 10.0 |v14:3|)) (* ?x5537 ?x5679)) (* ?x8355 |v12:5|))))
 (let ((?x7015 (* 18.0 |v4:13|)))
 (let ((?x4689 (* ?x5187 ?x439)))
 (let ((?x3234 (+ (+ (+ (+ (* ?x7122 ?x5679) (* 8.0 |v12:5|)) ?x8763) (* 4.0 ?x4856)) ?x4689)))
 (let (($x6446 (and (<= (+ (+ ?x3234 ?x7015) ?x5561) ?x3775) (<= (+ (+ ?x8480 ?x4512) ?x7696) ?x3237))))
 (let ((?x5948 (* 7.0 |v17:0|)))
 (let ((?x3924 (* 19.0 |v2:15|)))
 (let ((?x8623 (+ (+ (+ (+ (+ ?x2033 ?x6356) (* ?x3237 ?x9214)) ?x8864) (* ?x7925 |v16:1|)) ?x3924)))
 (let ((?x5720 (* 8.0 |v12:5|)))
 (let ((?x2141 (* 6.0 |v0:17|)))
 (let ((?x312 (+ (+ (+ (+ (+ ?x679 ?x1283) (* ?x3812 |v12:5|)) ?x609) (* 4.0 ?x3669)) ?x2141)))
 (let ((?x5569 (* 0.0 |v12:5|)))
 (let ((?x3097 (* 17.0 ?x4856)))
 (let ((?x2941 (* 16.0 |v0:17|)))
 (let ((?x5022 (+ (+ (+ (+ (+ ?x6173 (* 11.0 |v17:0|)) (* ?x7925 |v3:14|)) ?x5425) ?x2941) ?x3097)))
 (let ((?x731 (* ?x7122 |v5:12|)))
 (let ((?x2472 (* ?x5187 ?x2701)))
 (let ((?x1439 (+ (+ (+ (+ (* ?x9179 |v1:16|) (* 12.0 |v4:13|)) ?x3127) (* ?x5187 |v0:17|)) (* ?x7410 ?x3669))))
 (let (($x2358 (and (and (<= (+ (+ ?x1439 ?x2472) ?x731) 18.0) (<= (+ ?x5022 ?x5569) 18.0)) (and (<= (+ ?x312 ?x5720) 8.0) (<= (+ ?x8623 ?x5948) ?x7122)))))
 (let ((?x2372 (* ?x7468 |v3:14|)))
 (let ((?x448 (* ?x6156 |v5:12|)))
 (let ((?x4965 (+ (+ (+ (+ (+ (+ ?x7586 (* ?x3312 |v15:2|)) |v4:13|) ?x6994) ?x1576) ?x448) ?x2372)))
 (let ((?x3908 (* ?x5537 |v13:4|)))
 (let ((?x3271 (* ?x9308 ?x3669)))
 (let ((?x6158 (+ (+ (+ (+ (+ (* ?x1687 ?x9214) ?x3585) (* ?x7468 |v2:15|)) ?x4307) ?x3271) |v15:2|)))
 (let ((?x6666 (* 11.0 ?x2701)))
 (let ((?x3072 (* ?x286 |v4:13|)))
 (let ((?x6970 (+ (+ (+ (* 14.0 |v1:16|) (* 6.0 ?x3669)) (* ?x4592 |v2:15|)) (* ?x7468 ?x5679))))
 (let ((?x2946 (* 11.0 |v13:4|)))
 (let ((?x629 (* ?x4592 |v2:15|)))
 (let ((?x1776 (+ (+ (+ (+ (* ?x7410 ?x5679) (* 6.0 ?x2701)) (* 20.0 |v5:12|)) ?x629) (* ?x4592 ?x3669))))
 (let (($x7582 (and (<= (+ (+ ?x1776 ?x2946) (* ?x9308 ?x439)) 17.0) (<= (+ (+ (+ ?x6970 ?x3072) ?x1033) ?x6666) ?x286))))
 (let ((?x646 (* 20.0 |v15:2|)))
 (let ((?x222 (+ (+ (+ (+ (+ (* ?x5187 |v4:13|) ?x4750) (* ?x5187 |v13:4|)) ?x3541) ?x4537) ?x646)))
 (let ((?x2762 (* ?x9566 ?x3669)))
 (let ((?x6900 (+ (+ (+ (+ (+ ?x1944 ?x1106) (* ?x7410 ?x9214)) ?x3035) (* 8.0 |v17:0|)) ?x7271)))
 (let ((?x8572 (* 2.0 ?x5679)))
 (let ((?x7944 (+ (+ (+ (+ (* 12.0 |v4:13|) (* 5.0 ?x2701)) ?x6666) (* 14.0 ?x3669)) ?x2762)))
 (let ((?x1908 (* ?x3312 |v5:12|)))
 (let ((?x4143 (* ?x5187 |v0:17|)))
 (let ((?x5215 (* 13.0 |v13:4|)))
 (let ((?x3496 (+ (+ (+ (* ?x3312 |v2:15|) (* 10.0 |v12:5|)) (* 12.0 |v3:14|)) (* ?x6156 |v17:0|))))
 (let (($x4461 (and (<= (+ (+ (+ ?x3496 ?x5215) ?x4143) ?x1908) ?x1687) (<= (+ (+ ?x7944 ?x8572) (* ?x4592 ?x2701)) ?x9308))))
 (let (($x4760 (and (or $x4461 (and (<= (+ ?x6900 ?x2762) ?x7410) (<= (+ ?x222 ?x8571) ?x1687))) (or $x7582 (and (<= (+ ?x6158 ?x3908) 16.0) (<= ?x4965 ?x7122))))))
 (let ((?x957 (* 7.0 |v5:12|)))
 (let ((?x5665 (+ (+ (+ (+ (* 7.0 |v3:14|) |v14:3|) ?x6211) (* 20.0 ?x9214)) (* ?x9179 ?x439))))
 (let ((?x3200 (* 18.0 ?x3669)))
 (let ((?x2284 (* 19.0 |v4:13|)))
 (let ((?x855 (+ (+ (+ (+ (* 8.0 |v4:13|) (* 6.0 |v1:16|)) (* ?x3237 |v1:16|)) ?x2284) (* 4.0 |v5:12|))))
 (let ((?x1100 (+ ?x855 (* 3.0 |v5:12|))))
 (let (($x309 (or (<= (+ ?x1100 ?x3200) 6.0) (<= (+ (+ ?x5665 ?x957) (* ?x6156 |v13:4|)) 9.0))))
 (let ((?x2643 (* ?x5187 |v4:13|)))
 (let ((?x6121 (+ (+ (+ (+ (+ (* 14.0 |v13:4|) ?x7696) ?x1106) ?x5017) ?x8134) (* ?x1687 ?x5679))))
 (let ((?x2227 (* 7.0 |v14:3|)))
 (let ((?x3905 (+ (+ (+ (+ (+ ?x2472 ?x5720) (* ?x3312 |v16:1|)) (* 12.0 |v4:13|)) ?x68) ?x2227)))
 (let ((?x1991 (+ (+ (+ (+ (* ?x8355 ?x5679) ?x4143) (* 10.0 ?x5679)) (* ?x3775 |v1:16|)) ?x7004)))
 (let ((?x4041 (* ?x7122 |v0:17|)))
 (let ((?x8433 (* 4.0 |v15:2|)))
 (let ((?x6116 (+ (+ (+ (+ (+ (* 18.0 |v17:0|) |v0:17|) ?x4946) (* 9.0 ?x2701)) |v4:13|) ?x8433)))
 (let ((?x1069 (* ?x9566 |v1:16|)))
 (let ((?x5553 (+ (+ (+ (+ (* 20.0 ?x5679) (* ?x5187 ?x9214)) (* ?x9308 |v17:0|)) ?x593) ?x1069)))
 (let (($x6438 (or (or (<= (+ (+ ?x5553 ?x4107) ?x4127) 14.0) (<= (+ ?x6116 ?x4041) ?x7468)) (<= (+ (+ ?x1991 (* ?x286 ?x4856)) ?x8108) ?x5187))))
 (let (($x754 (or $x6438 (and (and (<= (+ ?x3905 ?x5865) 19.0) (<= (+ ?x6121 ?x2643) ?x6156)) $x309))))
 (let (($x7313 (and (and $x754 $x4760) (and (or $x2358 (or $x6446 $x1872)) (or $x3800 (and $x1024 $x8391))))))
 (let (($x7187 (and (and $x7313 (or (and (or (and $x4848 $x9055) $x7754) $x7046) $x3839)) $x4810)))
 (let (($x4184 (not (= |v6:11_st| (RMk1 val!10313)))))
 (let (($x3947 (not (= |v7:10_st| (RMk1 val!10312)))))
 (let (($x3746 (not (= |v8:9_st| (RMk1 val!10311)))))
 (let (($x3505 (not (= |v9:8_st| (RMk1 val!10310)))))
 (let (($x1202 (not (= |v10:7_st| (RMk1 val!10309)))))
 (let (($x2351 (not (= |v11:6_st| (RMk1 val!10308)))))
 (and $x2351 $x1202 $x3505 $x3746 $x3947 $x4184 $x7187))))))))))))))))))))))))))))))))))))))))))))))))))))))))))))))))))))))))))))))))))))))))))))))))))))))))))))))))))))))))))))))))))))))))))))))))))))))))))))))))))))))))))))))))))))))))))))))))))))))))))))))))))))))))))))))))))))))))))))))))))))))))))))))))))))))))))))))))))))))))))))))))))))))))))))))))))))))))))))))))))))))))))))))))))))))))))))))))))))))))))))))))))))))))))))))))))))))))))))))))))))))))))))))))))))))))))
 )
 )
 )
 )
 )
 )
 )
 )
 )
 )
 )
 )
 )
 )
 )
 )
 )
 )
(check-sat)
